119 48 011 1
1
800 113 1
672 114 1
567 115 1
488 116 1
701 117 1
620 118 1
593 119 1
680 108 1
577 109 1
714 110 1
684 111 1
765 112 1
585 113 1
824 114 1
627 115 1
659 116 1
711 117 1
484 118 1
571 119 1
524 108 1
572 109 1
681 110 1
553 111 1
526 112 1
718 113 1
586 114 1
545 115 1
658 116 1
697 117 1
742 118 1
729 119 1
833 108 1
698 109 1
752 110 1
544 111 1
543 112 1
543 113 1
511 114 1
672 115 1
505 116 1
611 117 1
703 118 1
692 119 1
618 108 1
916 109 1
683 110 1
624 111 1
659 112 1
1
1
1
1
1
1
1
1
1
1
1
1
1
1
1
1
1
1
1
1
1
1
1
1
1
1
1
1
1
1
1
1
1
1
1
1
1
1
1
1
1
1
1
1
1
1
1
1
1
1
1
1
1
1
1
1
1
1
1 9 679 21 523 33 832 45 617
1 10 576 22 571 34 697 46 915
1 11 713 23 680 35 751 47 682
1 12 683 24 552 36 543 48 623
1 13 764 25 525 37 542 49 658
1 2 799 14 584 26 717 38 542
1 3 671 15 823 27 585 39 510
1 4 566 16 626 28 544 40 671
1 5 487 17 658 29 657 41 504
1 6 700 18 710 30 696 42 610
1 7 619 19 483 31 741 43 702
1 8 592 20 570 32 728 44 691
